1633068000
1633099020
1633327200
1633358520
1633413480
1633444980
1633499580
1633530600
1633585740
1633617120
1633672680
1633703340
1633703340
1633708800
1633931580
1633962600
1633962600
1633965300
1634018220
1634049000
1634049000
1634053860
1634104500
1634135400
1634135400
1634140200
1634190960
1634221800
1634221800
1634224500
1634277600
1634308500
1634536740
1634567400
1634567400
1634571900
1634622660
1634631000
1634709060
1634740380
1634796000
1634826600
1634881800
1634913000
1635141120
1635173100
1635227760
1635258780
1635314280
1635345120
1635400680
1635431400
1635486960
1635518700
